9
Properties=species:S:1:pos:R:3:momenta:R:3:forces:R:3:fx:R:1:fy:R:1:fz:R:1 Generated=T from=T SMILES:=T CCO=T charge=0 spin=1 pbc="F F F"
C       -0.77131591       1.01628424       1.23470347       0.00000000       0.00000000       0.00000000      -0.11345267       0.21903573      -0.07108667      -0.11345267       0.21903573      -0.07108667
C        0.27140437      -0.01785529       0.86414438       0.00000000       0.00000000       0.00000000      -0.24036185       0.00409651       0.26509231      -0.24036185       0.00409651       0.26509231
O        1.00278547      -0.40469938       2.01841395       0.00000000       0.00000000       0.00000000       0.04763755      -0.23308624       0.30389836       0.04763755      -0.23308624       0.30389836
H       -1.33279004       1.33719023       0.35286663       0.00000000       0.00000000       0.00000000      -0.02760254      -0.00054862       0.10789537      -0.02760254      -0.00054862       0.10789537
H       -0.29968746       1.89212039       1.69229318       0.00000000       0.00000000       0.00000000      -0.00674246      -0.11861001      -0.14314756      -0.00674246      -0.11861001      -0.14314756
H       -1.47325293       0.61150836       1.97118414       0.00000000       0.00000000       0.00000000      -0.01809908      -0.01791147      -0.13747248      -0.01809908      -0.01791147      -0.13747248
H        0.97624439       0.39320195       0.13559882       0.00000000       0.00000000       0.00000000       0.04147220      -0.13701425       0.21404535       0.04147220      -0.13701425       0.21404535
H       -0.19489419      -0.90716673       0.42942709       0.00000000       0.00000000       0.00000000      -0.05380550       0.08244944      -0.20599385      -0.05380550       0.08244944      -0.20599385
H        0.36956088      -0.77726058       2.65546031       0.00000000       0.00000000       0.00000000       0.37095439       0.20158891      -0.33323082       0.37095439       0.20158891      -0.33323082
9
Properties=species:S:1:pos:R:3:momenta:R:3:forces:R:3:fx:R:1:fy:R:1:fz:R:1 Generated=T from=T SMILES:=T CCO=T charge=0 spin=1 pbc="F F F"
C       -0.77130430       1.01651127       1.23460982      -0.01708321       0.01972171       0.01648067      -0.12769890       0.17238583      -0.05577906      -0.12769890       0.17238583      -0.05577906
C        0.27139366      -0.01772233       0.86405459      -0.05310628       0.01709052       0.00042386      -0.24066272      -0.01541601       0.25472659      -0.24066272      -0.01541601       0.25472659
O        1.00296205      -0.40453885       2.01828082       0.00541536       0.00894081      -0.01191888       0.09982427      -0.20364229       0.24711999       0.09982427      -0.20364229       0.24711999
H       -1.33323930       1.33612970       0.35324139      -0.00854485      -0.00913263       0.01296532      -0.03645349       0.00669616       0.09660434      -0.03645349       0.00669616       0.09660434
H       -0.30006308       1.89144966       1.69171746      -0.00350014      -0.01389429      -0.01111782       0.00668244      -0.08913963      -0.13091470       0.00668244      -0.08913963      -0.13091470
H       -1.47252521       0.61076548       1.97219246       0.01571731      -0.01115275       0.01493645      -0.00827165      -0.00817295      -0.15226753      -0.00827165      -0.00817295      -0.15226753
H        0.97759033       0.39327836       0.13652688       0.02427611      -0.00932716       0.01435722       0.03012814      -0.13934311       0.21161990       0.03012814      -0.13934311       0.21161990
H       -0.19581542      -0.90735719       0.42840132      -0.01430979       0.00241221      -0.02233881      -0.03545920       0.10678159      -0.19130017      -0.03545920       0.10678159      -0.19130017
H        0.37202805      -0.77732422       2.65474027       0.05113550      -0.00465843      -0.01378802       0.31191117       0.16985032      -0.27980933       0.31191117       0.16985032      -0.27980933
9
Properties=species:S:1:pos:R:3:momenta:R:3:forces:R:3:fx:R:1:fy:R:1:fz:R:1 Generated=T from=T SMILES:=T CCO=T charge=0 spin=1 pbc="F F F"
C       -0.77131578       1.01696003       1.23459035      -0.01822301       0.06667208      -0.01914995      -0.13192776       0.12943219      -0.07292602      -0.13192776       0.12943219      -0.07292602
C        0.27042372      -0.01760770       0.86402099      -0.13250721      -0.04366823       0.01373530      -0.20982994      -0.04638087       0.23679306      -0.20982994      -0.04638087       0.23679306
O        1.00307731      -0.40468485       2.01840727       0.09444495      -0.07301295       0.05904347       0.23689568      -0.11042672       0.05215787       0.23689568      -0.11042672       0.05215787
H       -1.33499222       1.33571112       0.35445612      -0.03662478      -0.00475341       0.01428928      -0.03668290       0.01157056       0.08645830      -0.03668290       0.01157056       0.08645830
H       -0.29962084       1.88986757       1.69073615       0.00868121      -0.01347759      -0.01570524       0.02717420      -0.03772493      -0.10906711       0.02717420      -0.03772493      -0.10906711
H       -1.47052513       0.61078499       1.97262660       0.02145727       0.01696002      -0.00078252      -0.02895142      -0.01458927      -0.13365786      -0.02895142      -0.01458927      -0.13365786
H        0.98000310       0.39246108       0.13951598       0.02741680       0.00100381       0.04163973       0.01628982      -0.12896860       0.19581097       0.01628982      -0.12896860       0.19581097
H       -0.19784947      -0.90603737       0.42344313      -0.02037380       0.02720708      -0.07154347      -0.00828950       0.13025686      -0.14899917      -0.00828950       0.13025686      -0.14899917
H        0.37749317      -0.77595862       2.65278900       0.05572859       0.02306919      -0.02152660       0.13532172       0.06683073      -0.10657008       0.13532172       0.06683073      -0.10657008
9
Properties=species:S:1:pos:R:3:momenta:R:3:forces:R:3:fx:R:1:fy:R:1:fz:R:1 Generated=T from=T SMILES:=T CCO=T charge=0 spin=1 pbc="F F F"
C       -0.77144315       1.01768408       1.23441088      -0.00270701       0.11217292      -0.01695231      -0.13325649       0.08718009      -0.11986235      -0.13325649       0.08718009      -0.11986235
C        0.26911684      -0.01796072       0.86423210      -0.17805296      -0.04359033       0.00054659      -0.17088568      -0.03482044       0.25465763      -0.17088568      -0.03482044       0.25465763
O        1.00355038      -0.40520611       2.01874296       0.12616938      -0.09899774       0.04442528       0.36690965      -0.01237985      -0.16858403       0.36690965      -0.01237985      -0.16858403
H       -1.33862146       1.33454446       0.35568521      -0.04009467      -0.02197521       0.00480082      -0.02120630       0.01308223       0.08345848      -0.02120630       0.01308223       0.08345848
H       -0.29856400       1.88885712       1.68770887       0.00887528      -0.00431331      -0.03837382       0.04698824       0.01962898      -0.08166395       0.04698824       0.01962898      -0.08166395
H       -1.46848900       0.61235405       1.97251976       0.01752970       0.01531803      -0.00371893      -0.06162032      -0.03105419      -0.09075167      -0.06162032      -0.03105419      -0.09075167
H        0.98256060       0.39160342       0.14575351       0.03119020      -0.02130046       0.08610704       0.02810432      -0.09910415       0.13977255       0.02810432      -0.09910415       0.13977255
H       -0.19938508      -0.90258082       0.41640251      -0.01342844       0.04320107      -0.07139833       0.00180741       0.10808534      -0.11047164       0.00180741       0.10808534      -0.11047164
H        0.38306669      -0.77388204       2.65082188       0.05051852       0.01948501      -0.00543634      -0.05684078      -0.05061799       0.09344506      -0.05684078      -0.05061799       0.09344506
9
Properties=species:S:1:pos:R:3:momenta:R:3:forces:R:3:fx:R:1:fy:R:1:fz:R:1 Generated=T from=T SMILES:=T CCO=T charge=0 spin=1 pbc="F F F"
C       -0.77143486       1.01854923       1.23411103       0.00833969       0.11840009      -0.04522581      -0.14586914       0.02467441      -0.15956889      -0.14586914       0.02467441      -0.15956889
C        0.26748603      -0.01849114       0.86440145      -0.20151027      -0.04764362      -0.03193903      -0.12464777      -0.01772680       0.31498915      -0.12464777      -0.01772680       0.31498915
O        1.00432640      -0.40562195       2.01925366       0.12305099      -0.06217980       0.11452434       0.44103214       0.05453521      -0.34928691       0.44103214       0.05453521      -0.34928691
H       -1.34196495       1.33205646       0.35653380      -0.02888383      -0.03233046       0.02010845      -0.01092654       0.02296576       0.07421533      -0.01092654       0.02296576       0.07421533
H       -0.29749790       1.88809616       1.68412666       0.01092853      -0.00711905      -0.03442992       0.06709098       0.07972190      -0.05218509       0.06709098       0.07972190      -0.05218509
H       -1.46694778       0.61352865       1.97208924       0.01641050       0.00715506      -0.01135895      -0.08318878      -0.03906147      -0.05448352      -0.08318878      -0.03906147      -0.05448352
H        0.98553406       0.38951912       0.15423187       0.02702264      -0.02383277       0.08639154       0.06312892      -0.04576347       0.04794228       0.06312892      -0.04576347       0.04794228
H       -0.20029744      -0.89824559       0.40830214      -0.00443404       0.04816902      -0.09612156      -0.00102520       0.06381378      -0.07387675      -0.00102520       0.06381378      -0.07387675
H        0.38814089      -0.77278885       2.64978744       0.04907580      -0.00061847      -0.00194905      -0.20559455      -0.14315929       0.25225443      -0.20559455      -0.14315929       0.25225443
9
Properties=species:S:1:pos:R:3:momenta:R:3:forces:R:3:fx:R:1:fy:R:1:fz:R:1 Generated=T from=T SMILES:=T CCO=T charge=0 spin=1 pbc="F F F"
C       -0.77164205       1.01954411       1.23383489      -0.08519790       0.12665329      -0.06361972      -0.11232559      -0.08418739      -0.11810270      -0.11232559      -0.08418739      -0.11810270
C        0.26594299      -0.01882571       0.86408974      -0.21108927      -0.05730826      -0.03740368      -0.10508310      -0.02680744       0.43044862      -0.10508310      -0.02680744       0.43044862
O        1.00544876      -0.40596467       2.01996072       0.20843339      -0.01775070       0.04180086       0.40545484       0.06132124      -0.42970011       0.40545484       0.06132124      -0.42970011
H       -1.34430673       1.32878822       0.36048629      -0.01749968      -0.04351135       0.06141381      -0.05569396       0.06599813      -0.02754282      -0.05569396       0.06599813      -0.02754282
H       -0.29553349       1.88726576       1.67975020       0.02954414      -0.00635714      -0.04309527       0.08145528       0.13804090      -0.01424917       0.08145528       0.13804090      -0.01424917
H       -1.46662458       0.61406385       1.97114962      -0.00408345       0.00634344      -0.00643999      -0.08442008      -0.03705988      -0.02206629      -0.08442008      -0.03705988      -0.02206629
H        0.98859112       0.38730286       0.16436473       0.03712578      -0.02629126       0.10958022       0.12901397       0.02926600      -0.07836070       0.12901397       0.02926600      -0.07836070
H       -0.19981418      -0.89422626       0.39944323       0.00797012       0.03983045      -0.08553425      -0.00771371       0.02383907      -0.03735543      -0.00771371       0.02383907      -0.03735543
H        0.39203284      -0.77419462       2.65074024       0.03479687      -0.02160848       0.02329803      -0.25068769      -0.17041065       0.29692852      -0.25068769      -0.17041065       0.29692852
